ciphers.trafid_cipher/1_unsat.smt2
(set-logic ALL)
(declare-const message_VAR String)
(declare-const alphabet_VAR String)
(declare-const period_VAR Int)
(assert (< (str.len alphabet_VAR) 0))
(check-sat)
(get-value (message_VAR))
(get-value (alphabet_VAR))
(get-value (period_VAR))
